c instance by G2
c solution = 00001011100
c Known solution cost is 807 
p cnf 11 30
w 63 73 95 41 73 66 90 88 74 64 80
-5 -11 10 0
6 9 -11 0
11 -10 -9 0
1 9 -5 0
-6 -8 11 0
-7 -9 5 0
5 -10 -6 0
-6 -8 -10 0
4 -8 7 0
4 8 5 0
-3 11 -7 0
-4 -9 -2 0
8 6 3 0
9 -7 -5 0
-1 3 11 0
-9 -1 -5 0
-5 -11 -7 0
7 10 -9 0
4 -2 -10 0
-9 -1 11 0
-9 -10 3 0
-4 6 -5 0
-4 3 10 0
-11 -5 6 0
-3 5 -4 0
8 11 4 0
4 -3 6 0
6 11 -2 0
-5 4 9 0
2 -3 -1 0
